NAME : amtsp
TYPE : ATSP
DIMENSION : 10
EDGE_WEIGHT_TYPE : EXPLICIT
EDGE_WEIGHT_FORMAT : FULL_MATRIX
EDGE_WEIGHT_SECTION
100000 -100000 100000 100000 100000 100000 100000 100000 100000 100000 
100000 100000 271 1592 2126 1927 2126 2802 2676 2802 
0 0 100000 466 706 505 708 2460 2307 2462 
0 0 466 100000 505 695 2389 2855 2461 2307 
0 0 706 505 100000 466 2200 2388 689 500 
0 0 505 695 466 100000 466 689 500 689 
0 0 708 2389 2200 466 100000 500 689 2388 
0 0 2460 2855 2388 689 500 100000 466 2200 
0 0 2307 2461 689 500 689 466 100000 466 
0 0 2462 2307 500 689 2388 2200 466 100000 
